@SET NCELLS 20
&FORCE_EVAL
  METHOD QS
  &DFT
!    &EXTERNAL_POTENTIAL
!      FUNCTION  (VS+VG+VD)/(ONE+EXP(X-(LS+LC)))/(ONE+EXP(-X+LS))-VS/(ONE+EXP(X-(LS+LC)))-VD/(ONE+EXP(-X+LS))
!      PARAMETERS ONE VS VG VD LS LC
!      VALUES 1.0 0.0 0.00209018 0.0 45.73136892 66.89630000
!      !VALUES 1.0 0.0 0.00209018 0.01837465 45.73136892 66.89630000
!    &END
    &TRANSPORT
      DENSITY_MATRIX_CONSTRUCTION_METHOD TRANSPORT
      EPS_LIMIT 1.0E-4
      EPS_DECAY 1.0E-6
      N_ABSCISSAE 64
      N_CELLS ${NCELLS}
    &END
    &PRINT
     &E_DENSITY_CUBE
      &EACH
       QS_SCF 1
      &END
     &END
     &TOT_DENSITY_CUBE
      &EACH
       QS_SCF 1
      &END
     &END
    &END
    BASIS_SET_FILE_NAME ../BASIS_ZIJLSTRA
    POTENTIAL_FILE_NAME ../POTENTIAL 
    &MGRID
      CUTOFF 200
      &RS_GRID
         MAX_DISTRIBUTED_LEVEL 5
      &END
      SKIP_LOAD_BALANCE_DISTRIBUTED
    &END MGRID
    &QS
      EPS_DEFAULT 1.0E-10
      LS_SCF
      &DISTRIBUTION
        BASIC_OPTIMIZATION .FALSE.
        BASIC_SPATIAL_OPTIMIZATION .TRUE.
      &END
    &END QS
    &LS_SCF
      MAX_SCF    1
      EPS_FILTER 1.0E-5
      EPS_SCF    1.0E-5
      MU        -0.05
      MIXING_FRACTION 0.2
      REPORT_ALL_SPARSITIES OFF
      PERFORM_MU_SCAN OFF
      S_PRECONDITIONER NONE
    &END
    &SCF
      MAX_SCF    30
      EPS_SCF    1.0E-6
      &OT
      &END
      &OUTER_SCF
         MAX_SCF    30
         EPS_SCF    1.0E-6
      &END
      &PRINT
        &RESTART OFF
        &END
      &END
    &END
    &XC
      &XC_FUNCTIONAL PADE
      &END XC_FUNCTIONAL
    &END XC
  &END DFT
  &SUBSYS
    &CELL
      ABC 85.2 20 20
      MULTIPLE_UNIT_CELL 1 1 1
    &END CELL
    &TOPOLOGY
      MULTIPLE_UNIT_CELL 1 1 1
    &END
    &COORD
N 0.000000 3.151761 0.000000
C 0.000000 2.228632 2.228632
C 0.000000 0.000000 3.151761
C 0.000000 -2.228632 2.228632
C 0.000000 -3.151761 0.000000
C -0.000000 -2.228632 -2.228632
C 0.000000 -0.000000 -3.151761
C 0.000000 2.228632 -2.228632
C 0.710000 2.911847 -1.206127
C 0.710000 2.911847 1.206127
C 0.710000 1.206127 2.911847
C 0.710000 -1.206127 2.911847
C 0.710000 -2.911847 1.206127
C 0.710000 -2.911847 -1.206127
C 0.710000 -1.206127 -2.911847
C 0.710000 1.206127 -2.911847
C 2.130000 2.911847 -1.206127
C 2.130000 2.911847 1.206127
C 2.130000 1.206127 2.911847
C 2.130000 -1.206127 2.911847
C 2.130000 -2.911847 1.206127
C 2.130000 -2.911847 -1.206127
C 2.130000 -1.206127 -2.911847
C 2.130000 1.206127 -2.911847
C 2.840000 3.151761 0.000000
C 2.840000 2.228632 2.228632
C 2.840000 0.000000 3.151761
C 2.840000 -2.228632 2.228632
N 2.840000 -3.151761 0.000000
C 2.840000 -2.228632 -2.228632
C 2.840000 -0.000000 -3.151761
C 2.840000 2.228632 -2.228632
N 4.260000 3.151761 0.000000
C 4.260000 2.228632 2.228632
C 4.260000 0.000000 3.151761
C 4.260000 -2.228632 2.228632
C 4.260000 -3.151761 0.000000
C 4.260000 -2.228632 -2.228632
C 4.260000 -0.000000 -3.151761
C 4.260000 2.228632 -2.228632
C 4.970000 2.911847 -1.206127
C 4.970000 2.911847 1.206127
C 4.970000 1.206127 2.911847
C 4.970000 -1.206127 2.911847
C 4.970000 -2.911847 1.206127
C 4.970000 -2.911847 -1.206127
C 4.970000 -1.206127 -2.911847
C 4.970000 1.206127 -2.911847
C 6.390000 2.911847 -1.206127
C 6.390000 2.911847 1.206127
C 6.390000 1.206127 2.911847
C 6.390000 -1.206127 2.911847
C 6.390000 -2.911847 1.206127
C 6.390000 -2.911847 -1.206127
C 6.390000 -1.206127 -2.911847
C 6.390000 1.206127 -2.911847
C 7.100000 3.151761 0.000000
C 7.100000 2.228632 2.228632
C 7.100000 0.000000 3.151761
C 7.100000 -2.228632 2.228632
N 7.100000 -3.151761 0.000000
C 7.100000 -2.228632 -2.228632
C 7.100000 -0.000000 -3.151761
C 7.100000 2.228632 -2.228632
N 8.520000 3.151761 0.000000
C 8.520000 2.228632 2.228632
C 8.520000 0.000000 3.151761
C 8.520000 -2.228632 2.228632
C 8.520000 -3.151761 0.000000
C 8.520000 -2.228632 -2.228632
C 8.520000 -0.000000 -3.151761
C 8.520000 2.228632 -2.228632
C 9.230000 2.911847 -1.206127
C 9.230000 2.911847 1.206127
C 9.230000 1.206127 2.911847
C 9.230000 -1.206127 2.911847
C 9.230000 -2.911847 1.206127
C 9.230000 -2.911847 -1.206127
C 9.230000 -1.206127 -2.911847
C 9.230000 1.206127 -2.911847
C 10.650000 2.911847 -1.206127
C 10.650000 2.911847 1.206127
C 10.650000 1.206127 2.911847
C 10.650000 -1.206127 2.911847
C 10.650000 -2.911847 1.206127
C 10.650000 -2.911847 -1.206127
C 10.650000 -1.206127 -2.911847
C 10.650000 1.206127 -2.911847
C 11.360000 3.151761 0.000000
C 11.360000 2.228632 2.228632
C 11.360000 0.000000 3.151761
C 11.360000 -2.228632 2.228632
N 11.360000 -3.151761 0.000000
C 11.360000 -2.228632 -2.228632
C 11.360000 -0.000000 -3.151761
C 11.360000 2.228632 -2.228632
N 12.780000 3.151761 0.000000
C 12.780000 2.228632 2.228632
C 12.780000 0.000000 3.151761
C 12.780000 -2.228632 2.228632
C 12.780000 -3.151761 0.000000
C 12.780000 -2.228632 -2.228632
C 12.780000 -0.000000 -3.151761
C 12.780000 2.228632 -2.228632
C 13.490000 2.911847 -1.206127
C 13.490000 2.911847 1.206127
C 13.490000 1.206127 2.911847
C 13.490000 -1.206127 2.911847
C 13.490000 -2.911847 1.206127
C 13.490000 -2.911847 -1.206127
C 13.490000 -1.206127 -2.911847
C 13.490000 1.206127 -2.911847
C 14.910000 2.911847 -1.206127
C 14.910000 2.911847 1.206127
C 14.910000 1.206127 2.911847
C 14.910000 -1.206127 2.911847
C 14.910000 -2.911847 1.206127
C 14.910000 -2.911847 -1.206127
C 14.910000 -1.206127 -2.911847
C 14.910000 1.206127 -2.911847
C 15.620000 3.151761 0.000000
C 15.620000 2.228632 2.228632
C 15.620000 0.000000 3.151761
C 15.620000 -2.228632 2.228632
N 15.620000 -3.151761 0.000000
C 15.620000 -2.228632 -2.228632
C 15.620000 -0.000000 -3.151761
C 15.620000 2.228632 -2.228632
N 17.040000 3.151761 0.000000
C 17.040000 2.228632 2.228632
C 17.040000 0.000000 3.151761
C 17.040000 -2.228632 2.228632
C 17.040000 -3.151761 0.000000
C 17.040000 -2.228632 -2.228632
C 17.040000 -0.000000 -3.151761
C 17.040000 2.228632 -2.228632
C 17.750000 2.911847 -1.206127
C 17.750000 2.911847 1.206127
C 17.750000 1.206127 2.911847
C 17.750000 -1.206127 2.911847
C 17.750000 -2.911847 1.206127
C 17.750000 -2.911847 -1.206127
C 17.750000 -1.206127 -2.911847
C 17.750000 1.206127 -2.911847
C 19.170000 2.911847 -1.206127
C 19.170000 2.911847 1.206127
C 19.170000 1.206127 2.911847
C 19.170000 -1.206127 2.911847
C 19.170000 -2.911847 1.206127
C 19.170000 -2.911847 -1.206127
C 19.170000 -1.206127 -2.911847
C 19.170000 1.206127 -2.911847
C 19.880000 3.151761 0.000000
C 19.880000 2.228632 2.228632
C 19.880000 0.000000 3.151761
C 19.880000 -2.228632 2.228632
N 19.880000 -3.151761 0.000000
C 19.880000 -2.228632 -2.228632
C 19.880000 -0.000000 -3.151761
C 19.880000 2.228632 -2.228632
N 21.300000 3.151761 0.000000
C 21.300000 2.228632 2.228632
C 21.300000 0.000000 3.151761
C 21.300000 -2.228632 2.228632
C 21.300000 -3.151761 0.000000
C 21.300000 -2.228632 -2.228632
C 21.300000 -0.000000 -3.151761
C 21.300000 2.228632 -2.228632
C 22.010000 2.911847 -1.206127
C 22.010000 2.911847 1.206127
C 22.010000 1.206127 2.911847
C 22.010000 -1.206127 2.911847
C 22.010000 -2.911847 1.206127
C 22.010000 -2.911847 -1.206127
C 22.010000 -1.206127 -2.911847
C 22.010000 1.206127 -2.911847
C 23.430000 2.911847 -1.206127
C 23.430000 2.911847 1.206127
C 23.430000 1.206127 2.911847
C 23.430000 -1.206127 2.911847
C 23.430000 -2.911847 1.206127
C 23.430000 -2.911847 -1.206127
C 23.430000 -1.206127 -2.911847
C 23.430000 1.206127 -2.911847
C 24.140000 3.151761 0.000000
C 24.140000 2.228632 2.228632
C 24.140000 0.000000 3.151761
C 24.140000 -2.228632 2.228632
N 24.140000 -3.151761 0.000000
C 24.140000 -2.228632 -2.228632
C 24.140000 -0.000000 -3.151761
C 24.140000 2.228632 -2.228632
C 25.560000 3.151761 0.000000
C 25.560000 2.228632 2.228632
C 25.560000 0.000000 3.151761
C 25.560000 -2.228632 2.228632
C 25.560000 -3.151761 0.000000
C 25.560000 -2.228632 -2.228632
C 25.560000 -0.000000 -3.151761
C 25.560000 2.228632 -2.228632
C 26.270000 2.911847 -1.206127
C 26.270000 2.911847 1.206127
C 26.270000 1.206127 2.911847
C 26.270000 -1.206127 2.911847
C 26.270000 -2.911847 1.206127
C 26.270000 -2.911847 -1.206127
C 26.270000 -1.206127 -2.911847
C 26.270000 1.206127 -2.911847
C 27.690000 2.911847 -1.206127
C 27.690000 2.911847 1.206127
C 27.690000 1.206127 2.911847
C 27.690000 -1.206127 2.911847
C 27.690000 -2.911847 1.206127
C 27.690000 -2.911847 -1.206127
C 27.690000 -1.206127 -2.911847
C 27.690000 1.206127 -2.911847
C 28.400000 3.151761 0.000000
C 28.400000 2.228632 2.228632
C 28.400000 0.000000 3.151761
C 28.400000 -2.228632 2.228632
C 28.400000 -3.151761 0.000000
C 28.400000 -2.228632 -2.228632
C 28.400000 -0.000000 -3.151761
C 28.400000 2.228632 -2.228632
C 29.820000 3.151761 0.000000
C 29.820000 2.228632 2.228632
C 29.820000 0.000000 3.151761
C 29.820000 -2.228632 2.228632
C 29.820000 -3.151761 0.000000
C 29.820000 -2.228632 -2.228632
C 29.820000 -0.000000 -3.151761
C 29.820000 2.228632 -2.228632
C 30.530000 2.911847 -1.206127
C 30.530000 2.911847 1.206127
C 30.530000 1.206127 2.911847
C 30.530000 -1.206127 2.911847
C 30.530000 -2.911847 1.206127
C 30.530000 -2.911847 -1.206127
C 30.530000 -1.206127 -2.911847
C 30.530000 1.206127 -2.911847
C 31.950000 2.911847 -1.206127
C 31.950000 2.911847 1.206127
C 31.950000 1.206127 2.911847
C 31.950000 -1.206127 2.911847
C 31.950000 -2.911847 1.206127
C 31.950000 -2.911847 -1.206127
C 31.950000 -1.206127 -2.911847
C 31.950000 1.206127 -2.911847
C 32.660000 3.151761 0.000000
C 32.660000 2.228632 2.228632
C 32.660000 0.000000 3.151761
C 32.660000 -2.228632 2.228632
C 32.660000 -3.151761 0.000000
C 32.660000 -2.228632 -2.228632
C 32.660000 -0.000000 -3.151761
C 32.660000 2.228632 -2.228632
C 34.080000 3.151761 0.000000
C 34.080000 2.228632 2.228632
C 34.080000 0.000000 3.151761
C 34.080000 -2.228632 2.228632
C 34.080000 -3.151761 0.000000
C 34.080000 -2.228632 -2.228632
C 34.080000 -0.000000 -3.151761
C 34.080000 2.228632 -2.228632
C 34.790000 2.911847 -1.206127
C 34.790000 2.911847 1.206127
C 34.790000 1.206127 2.911847
C 34.790000 -1.206127 2.911847
C 34.790000 -2.911847 1.206127
C 34.790000 -2.911847 -1.206127
C 34.790000 -1.206127 -2.911847
C 34.790000 1.206127 -2.911847
C 36.210000 2.911847 -1.206127
C 36.210000 2.911847 1.206127
C 36.210000 1.206127 2.911847
C 36.210000 -1.206127 2.911847
C 36.210000 -2.911847 1.206127
C 36.210000 -2.911847 -1.206127
C 36.210000 -1.206127 -2.911847
C 36.210000 1.206127 -2.911847
C 36.920000 3.151761 0.000000
C 36.920000 2.228632 2.228632
C 36.920000 0.000000 3.151761
C 36.920000 -2.228632 2.228632
C 36.920000 -3.151761 0.000000
C 36.920000 -2.228632 -2.228632
C 36.920000 -0.000000 -3.151761
C 36.920000 2.228632 -2.228632
C 38.340000 3.151761 0.000000
C 38.340000 2.228632 2.228632
C 38.340000 0.000000 3.151761
C 38.340000 -2.228632 2.228632
C 38.340000 -3.151761 0.000000
C 38.340000 -2.228632 -2.228632
C 38.340000 -0.000000 -3.151761
C 38.340000 2.228632 -2.228632
C 39.050000 2.911847 -1.206127
C 39.050000 2.911847 1.206127
C 39.050000 1.206127 2.911847
C 39.050000 -1.206127 2.911847
C 39.050000 -2.911847 1.206127
C 39.050000 -2.911847 -1.206127
C 39.050000 -1.206127 -2.911847
C 39.050000 1.206127 -2.911847
C 40.470000 2.911847 -1.206127
C 40.470000 2.911847 1.206127
C 40.470000 1.206127 2.911847
C 40.470000 -1.206127 2.911847
C 40.470000 -2.911847 1.206127
C 40.470000 -2.911847 -1.206127
C 40.470000 -1.206127 -2.911847
C 40.470000 1.206127 -2.911847
C 41.180000 3.151761 0.000000
C 41.180000 2.228632 2.228632
C 41.180000 0.000000 3.151761
C 41.180000 -2.228632 2.228632
C 41.180000 -3.151761 0.000000
C 41.180000 -2.228632 -2.228632
C 41.180000 -0.000000 -3.151761
C 41.180000 2.228632 -2.228632
C 42.600000 3.151761 0.000000
C 42.600000 2.228632 2.228632
C 42.600000 0.000000 3.151761
C 42.600000 -2.228632 2.228632
C 42.600000 -3.151761 0.000000
C 42.600000 -2.228632 -2.228632
C 42.600000 -0.000000 -3.151761
C 42.600000 2.228632 -2.228632
C 43.310000 2.911847 -1.206127
C 43.310000 2.911847 1.206127
C 43.310000 1.206127 2.911847
C 43.310000 -1.206127 2.911847
C 43.310000 -2.911847 1.206127
C 43.310000 -2.911847 -1.206127
C 43.310000 -1.206127 -2.911847
C 43.310000 1.206127 -2.911847
C 44.730000 2.911847 -1.206127
C 44.730000 2.911847 1.206127
C 44.730000 1.206127 2.911847
C 44.730000 -1.206127 2.911847
C 44.730000 -2.911847 1.206127
C 44.730000 -2.911847 -1.206127
C 44.730000 -1.206127 -2.911847
C 44.730000 1.206127 -2.911847
C 45.440000 3.151761 0.000000
C 45.440000 2.228632 2.228632
C 45.440000 0.000000 3.151761
C 45.440000 -2.228632 2.228632
C 45.440000 -3.151761 0.000000
C 45.440000 -2.228632 -2.228632
C 45.440000 -0.000000 -3.151761
C 45.440000 2.228632 -2.228632
C 46.860000 3.151761 0.000000
C 46.860000 2.228632 2.228632
C 46.860000 0.000000 3.151761
C 46.860000 -2.228632 2.228632
C 46.860000 -3.151761 0.000000
C 46.860000 -2.228632 -2.228632
C 46.860000 -0.000000 -3.151761
C 46.860000 2.228632 -2.228632
C 47.570000 2.911847 -1.206127
C 47.570000 2.911847 1.206127
C 47.570000 1.206127 2.911847
C 47.570000 -1.206127 2.911847
C 47.570000 -2.911847 1.206127
C 47.570000 -2.911847 -1.206127
C 47.570000 -1.206127 -2.911847
C 47.570000 1.206127 -2.911847
C 48.990000 2.911847 -1.206127
C 48.990000 2.911847 1.206127
C 48.990000 1.206127 2.911847
C 48.990000 -1.206127 2.911847
C 48.990000 -2.911847 1.206127
C 48.990000 -2.911847 -1.206127
C 48.990000 -1.206127 -2.911847
C 48.990000 1.206127 -2.911847
C 49.700000 3.151761 0.000000
C 49.700000 2.228632 2.228632
C 49.700000 0.000000 3.151761
C 49.700000 -2.228632 2.228632
C 49.700000 -3.151761 0.000000
C 49.700000 -2.228632 -2.228632
C 49.700000 -0.000000 -3.151761
C 49.700000 2.228632 -2.228632
C 51.120000 3.151761 0.000000
C 51.120000 2.228632 2.228632
C 51.120000 0.000000 3.151761
C 51.120000 -2.228632 2.228632
C 51.120000 -3.151761 0.000000
C 51.120000 -2.228632 -2.228632
C 51.120000 -0.000000 -3.151761
C 51.120000 2.228632 -2.228632
C 51.830000 2.911847 -1.206127
C 51.830000 2.911847 1.206127
C 51.830000 1.206127 2.911847
C 51.830000 -1.206127 2.911847
C 51.830000 -2.911847 1.206127
C 51.830000 -2.911847 -1.206127
C 51.830000 -1.206127 -2.911847
C 51.830000 1.206127 -2.911847
C 53.250000 2.911847 -1.206127
C 53.250000 2.911847 1.206127
C 53.250000 1.206127 2.911847
C 53.250000 -1.206127 2.911847
C 53.250000 -2.911847 1.206127
C 53.250000 -2.911847 -1.206127
C 53.250000 -1.206127 -2.911847
C 53.250000 1.206127 -2.911847
C 53.960000 3.151761 0.000000
C 53.960000 2.228632 2.228632
C 53.960000 0.000000 3.151761
C 53.960000 -2.228632 2.228632
C 53.960000 -3.151761 0.000000
C 53.960000 -2.228632 -2.228632
C 53.960000 -0.000000 -3.151761
C 53.960000 2.228632 -2.228632
C 55.380000 3.151761 0.000000
C 55.380000 2.228632 2.228632
C 55.380000 0.000000 3.151761
C 55.380000 -2.228632 2.228632
C 55.380000 -3.151761 0.000000
C 55.380000 -2.228632 -2.228632
C 55.380000 -0.000000 -3.151761
C 55.380000 2.228632 -2.228632
C 56.090000 2.911847 -1.206127
C 56.090000 2.911847 1.206127
C 56.090000 1.206127 2.911847
C 56.090000 -1.206127 2.911847
C 56.090000 -2.911847 1.206127
C 56.090000 -2.911847 -1.206127
C 56.090000 -1.206127 -2.911847
C 56.090000 1.206127 -2.911847
C 57.510000 2.911847 -1.206127
C 57.510000 2.911847 1.206127
C 57.510000 1.206127 2.911847
C 57.510000 -1.206127 2.911847
C 57.510000 -2.911847 1.206127
C 57.510000 -2.911847 -1.206127
C 57.510000 -1.206127 -2.911847
C 57.510000 1.206127 -2.911847
C 58.220000 3.151761 0.000000
C 58.220000 2.228632 2.228632
C 58.220000 0.000000 3.151761
C 58.220000 -2.228632 2.228632
C 58.220000 -3.151761 0.000000
C 58.220000 -2.228632 -2.228632
C 58.220000 -0.000000 -3.151761
C 58.220000 2.228632 -2.228632
N 59.640000 3.151761 0.000000
C 59.640000 2.228632 2.228632
C 59.640000 0.000000 3.151761
C 59.640000 -2.228632 2.228632
C 59.640000 -3.151761 0.000000
C 59.640000 -2.228632 -2.228632
C 59.640000 -0.000000 -3.151761
C 59.640000 2.228632 -2.228632
C 60.350000 2.911847 -1.206127
C 60.350000 2.911847 1.206127
C 60.350000 1.206127 2.911847
C 60.350000 -1.206127 2.911847
C 60.350000 -2.911847 1.206127
C 60.350000 -2.911847 -1.206127
C 60.350000 -1.206127 -2.911847
C 60.350000 1.206127 -2.911847
C 61.770000 2.911847 -1.206127
C 61.770000 2.911847 1.206127
C 61.770000 1.206127 2.911847
C 61.770000 -1.206127 2.911847
C 61.770000 -2.911847 1.206127
C 61.770000 -2.911847 -1.206127
C 61.770000 -1.206127 -2.911847
C 61.770000 1.206127 -2.911847
C 62.480000 3.151761 0.000000
C 62.480000 2.228632 2.228632
C 62.480000 0.000000 3.151761
C 62.480000 -2.228632 2.228632
N 62.480000 -3.151761 0.000000
C 62.480000 -2.228632 -2.228632
C 62.480000 -0.000000 -3.151761
C 62.480000 2.228632 -2.228632
N 63.900000 3.151761 0.000000
C 63.900000 2.228632 2.228632
C 63.900000 0.000000 3.151761
C 63.900000 -2.228632 2.228632
C 63.900000 -3.151761 0.000000
C 63.900000 -2.228632 -2.228632
C 63.900000 -0.000000 -3.151761
C 63.900000 2.228632 -2.228632
C 64.610000 2.911847 -1.206127
C 64.610000 2.911847 1.206127
C 64.610000 1.206127 2.911847
C 64.610000 -1.206127 2.911847
C 64.610000 -2.911847 1.206127
C 64.610000 -2.911847 -1.206127
C 64.610000 -1.206127 -2.911847
C 64.610000 1.206127 -2.911847
C 66.030000 2.911847 -1.206127
C 66.030000 2.911847 1.206127
C 66.030000 1.206127 2.911847
C 66.030000 -1.206127 2.911847
C 66.030000 -2.911847 1.206127
C 66.030000 -2.911847 -1.206127
C 66.030000 -1.206127 -2.911847
C 66.030000 1.206127 -2.911847
C 66.740000 3.151761 0.000000
C 66.740000 2.228632 2.228632
C 66.740000 0.000000 3.151761
C 66.740000 -2.228632 2.228632
N 66.740000 -3.151761 0.000000
C 66.740000 -2.228632 -2.228632
C 66.740000 -0.000000 -3.151761
C 66.740000 2.228632 -2.228632
N 68.160000 3.151761 0.000000
C 68.160000 2.228632 2.228632
C 68.160000 0.000000 3.151761
C 68.160000 -2.228632 2.228632
C 68.160000 -3.151761 0.000000
C 68.160000 -2.228632 -2.228632
C 68.160000 -0.000000 -3.151761
C 68.160000 2.228632 -2.228632
C 68.870000 2.911847 -1.206127
C 68.870000 2.911847 1.206127
C 68.870000 1.206127 2.911847
C 68.870000 -1.206127 2.911847
C 68.870000 -2.911847 1.206127
C 68.870000 -2.911847 -1.206127
C 68.870000 -1.206127 -2.911847
C 68.870000 1.206127 -2.911847
C 70.290000 2.911847 -1.206127
C 70.290000 2.911847 1.206127
C 70.290000 1.206127 2.911847
C 70.290000 -1.206127 2.911847
C 70.290000 -2.911847 1.206127
C 70.290000 -2.911847 -1.206127
C 70.290000 -1.206127 -2.911847
C 70.290000 1.206127 -2.911847
C 71.000000 3.151761 0.000000
C 71.000000 2.228632 2.228632
C 71.000000 0.000000 3.151761
C 71.000000 -2.228632 2.228632
N 71.000000 -3.151761 0.000000
C 71.000000 -2.228632 -2.228632
C 71.000000 -0.000000 -3.151761
C 71.000000 2.228632 -2.228632
N 72.420000 3.151761 0.000000
C 72.420000 2.228632 2.228632
C 72.420000 0.000000 3.151761
C 72.420000 -2.228632 2.228632
C 72.420000 -3.151761 0.000000
C 72.420000 -2.228632 -2.228632
C 72.420000 -0.000000 -3.151761
C 72.420000 2.228632 -2.228632
C 73.130000 2.911847 -1.206127
C 73.130000 2.911847 1.206127
C 73.130000 1.206127 2.911847
C 73.130000 -1.206127 2.911847
C 73.130000 -2.911847 1.206127
C 73.130000 -2.911847 -1.206127
C 73.130000 -1.206127 -2.911847
C 73.130000 1.206127 -2.911847
C 74.550000 2.911847 -1.206127
C 74.550000 2.911847 1.206127
C 74.550000 1.206127 2.911847
C 74.550000 -1.206127 2.911847
C 74.550000 -2.911847 1.206127
C 74.550000 -2.911847 -1.206127
C 74.550000 -1.206127 -2.911847
C 74.550000 1.206127 -2.911847
C 75.260000 3.151761 0.000000
C 75.260000 2.228632 2.228632
C 75.260000 0.000000 3.151761
C 75.260000 -2.228632 2.228632
N 75.260000 -3.151761 0.000000
C 75.260000 -2.228632 -2.228632
C 75.260000 -0.000000 -3.151761
C 75.260000 2.228632 -2.228632
N 76.680000 3.151761 0.000000
C 76.680000 2.228632 2.228632
C 76.680000 0.000000 3.151761
C 76.680000 -2.228632 2.228632
C 76.680000 -3.151761 0.000000
C 76.680000 -2.228632 -2.228632
C 76.680000 -0.000000 -3.151761
C 76.680000 2.228632 -2.228632
C 77.390000 2.911847 -1.206127
C 77.390000 2.911847 1.206127
C 77.390000 1.206127 2.911847
C 77.390000 -1.206127 2.911847
C 77.390000 -2.911847 1.206127
C 77.390000 -2.911847 -1.206127
C 77.390000 -1.206127 -2.911847
C 77.390000 1.206127 -2.911847
C 78.810000 2.911847 -1.206127
C 78.810000 2.911847 1.206127
C 78.810000 1.206127 2.911847
C 78.810000 -1.206127 2.911847
C 78.810000 -2.911847 1.206127
C 78.810000 -2.911847 -1.206127
C 78.810000 -1.206127 -2.911847
C 78.810000 1.206127 -2.911847
C 79.520000 3.151761 0.000000
C 79.520000 2.228632 2.228632
C 79.520000 0.000000 3.151761
C 79.520000 -2.228632 2.228632
N 79.520000 -3.151761 0.000000
C 79.520000 -2.228632 -2.228632
C 79.520000 -0.000000 -3.151761
C 79.520000 2.228632 -2.228632
N 80.940000 3.151761 0.000000
C 80.940000 2.228632 2.228632
C 80.940000 0.000000 3.151761
C 80.940000 -2.228632 2.228632
C 80.940000 -3.151761 0.000000
C 80.940000 -2.228632 -2.228632
C 80.940000 -0.000000 -3.151761
C 80.940000 2.228632 -2.228632
C 81.650000 2.911847 -1.206127
C 81.650000 2.911847 1.206127
C 81.650000 1.206127 2.911847
C 81.650000 -1.206127 2.911847
C 81.650000 -2.911847 1.206127
C 81.650000 -2.911847 -1.206127
C 81.650000 -1.206127 -2.911847
C 81.650000 1.206127 -2.911847
C 83.070000 2.911847 -1.206127
C 83.070000 2.911847 1.206127
C 83.070000 1.206127 2.911847
C 83.070000 -1.206127 2.911847
C 83.070000 -2.911847 1.206127
C 83.070000 -2.911847 -1.206127
C 83.070000 -1.206127 -2.911847
C 83.070000 1.206127 -2.911847
C 83.780000 3.151761 0.000000
C 83.780000 2.228632 2.228632
C 83.780000 0.000000 3.151761
C 83.780000 -2.228632 2.228632
N 83.780000 -3.151761 0.000000
C 83.780000 -2.228632 -2.228632
C 83.780000 -0.000000 -3.151761
C 83.780000 2.228632 -2.228632
    &END COORD
    &KIND H
      BASIS_SET 3SP-GTH
      POTENTIAL GTH-PADE-q1
    &END KIND
    &KIND C
      BASIS_SET 3SP-GTH
      POTENTIAL GTH-PADE-q4
    &END KIND
    &KIND N
      BASIS_SET 3SP-GTH
      POTENTIAL GTH-PADE-q5
    &END KIND
    &PRINT
      &ATOMIC_COORDINATES OFF
      &END
      &MOLECULES OFF
      &END
    &END
  &END SUBSYS
&END FORCE_EVAL
&MOTION
 &GEO_OPT
 &END
&END
&GLOBAL
  &DBCSR
     SUBCOMMUNICATORS .TRUE.
     COMM_THREAD_LOAD 80
  &END
  PROJECT SI
  RUN_TYPE ENERGY
  PRINT_LEVEL MEDIUM
  &TIMINGS
     THRESHOLD 0.000001
  &END
  EXTENDED_FFT_LENGTHS
!TRACE
!TRACE_MASTER .FALSE.
!TRACE_MAX 1000
&END GLOBAL

