&FORCE_EVAL
  METHOD QS
  &DFT
    BASIS_SET_FILE_NAME ../BASIS_ZIJLSTRA
    POTENTIAL_FILE_NAME ../POTENTIAL 
    &PRINT
     &MO_CUBES
        NHOMO 10
        NLUMO 10
        WRITE_CUBE .FALSE.
     &END
!    &E_DENSITY_CUBE
!       STRIDE 1 1 1
!    &END
!     &V_HARTREE_CUBE
!        STRIDE 1 1 1
!     &END
!     &TOT_DENSITY_CUBE
!        STRIDE 1 1 1
!     &END
!   &AO_MATRICES
!     &EACH
!       QS_SCF 1000
!     &END 
!     ADD_LAST SYMBOLIC
!     OVERLAP .TRUE.
!     KOHN_SHAM_MATRIX .TRUE.
!     FILENAME ./matrices.dat
!   &END
    &END
    &MGRID
      CUTOFF 200
      &RS_GRID
         MAX_DISTRIBUTED_LEVEL 5
      &END
      SKIP_LOAD_BALANCE_DISTRIBUTED
    &END MGRID
    &QS
      EPS_DEFAULT 1.0E-10
      LS_SCF
      &DISTRIBUTION
        BASIC_OPTIMIZATION .FALSE.
        BASIC_SPATIAL_OPTIMIZATION .TRUE.
      &END
    &END QS
    &LS_SCF
      MAX_SCF    10
      EPS_FILTER 1.0E-5
      EPS_SCF    1.0E-5
      MU        -0.05
      MIXING_FRACTION 0.2
      PURIFICATION_METHOD TRS4
      REPORT_ALL_SPARSITIES OFF
      PERFORM_MU_SCAN OFF
    &END
    &TRANSPORT
      DENSITY_MATRIX_CONSTRUCTION_METHOD   DIAG
    &END
    &SCF
      MAX_SCF    30
      EPS_SCF    1.0E-6
      &OT
      &END
      &OUTER_SCF
         MAX_SCF    30
         EPS_SCF    1.0E-6
      &END
      &PRINT
        &RESTART OFF
        &END
      &END
    &END
    &XC
      &XC_FUNCTIONAL PADE
      &END XC_FUNCTIONAL
    &END XC
  &END DFT
  &SUBSYS
    &CELL
      ABC 16.29 25 25
      MULTIPLE_UNIT_CELL 1 1 1
    &END CELL
    &TOPOLOGY
      MULTIPLE_UNIT_CELL 1 1 1
    &END 
    &COORD
  H        -0.6596374668        6.0401660967       17.4155638001
  H        -0.8870465839       11.6750125494       17.2898699489
  H        -0.6596347939       17.4155828376        6.0401485106
  H        -0.8870485292       17.2898720547       11.6750181405
  H        -1.7865773060       17.2730017280       17.2730017046
 Si         0.0940918681        2.6042959968        2.6042984961
 Si         0.0491456638        2.7136507766        8.1449808113
 Si         0.0252347381        2.6244086383       13.6696266237
 Si         0.0368431062        5.3853601323        5.3853533176
 Si         0.0040945358        5.3883352564       10.9178379317
 Si         0.0783720162        5.2762949597       16.3700030601
 Si         0.0491125454        8.1449936534        2.7136702801
 Si         0.0008147378        8.1449302985        8.1449336932
 Si        -0.0215360969        8.1361894804       13.6474543269
 Si         0.0040837227       10.9178350638        5.3883080121
 Si        -0.0386828616       10.9021072433       10.9021192752
 Si        -0.0440546806       10.8906729538       16.3400960635
 Si         0.0252385100       13.6696172789        2.6244052534
 Si        -0.0215453072       13.6474565611        8.1361878158
 Si        -0.0645054787       13.6793135506       13.6793105407
 Si         0.0783697073       16.3700028915        5.2762955056
 Si        -0.0440497077       16.3401033320       10.8906792847
 Si        -0.5791811083       16.6276266536       16.6276508344
  H         1.0032557661        4.3843046794       17.1444558821
  H         0.8535134499       10.0321690276       17.1748655151
  H         0.2782343053       15.9879349412       17.6767594057
  H         1.0032587263       17.1444613278        4.3843121769
  H         0.8535159133       17.1748636610       10.0321645388
  H         0.2782440727       17.6767044770       15.9879338570
  H         0.7618381204        0.2838844051        4.7327297233
  H         0.4050952514        0.5243475194       10.3777145095
  H         0.1751273121        0.7720738884       16.2320160247
  H         0.7618380834        4.7327335420        0.2838829570
  H         0.4052157665       10.3777037676        0.5242864225
  H         0.1751333638       16.2320196793        0.7720739292
 Si         1.5351617389        1.3002536915        3.9486839566
 Si         1.3418248246        1.3480354993        9.5536599721
 Si         1.1914198637        1.2724813010       15.2383383546
 Si         1.5351561599        3.9486824748        1.3002515229
 Si         1.4096079904        4.0478358876        6.7637932186
 Si         1.3714050602        4.0080469858       12.2920121534
 Si         1.4096038209        6.7638040069        4.0478287865
 Si         1.3545352825        6.7676714323        9.5265613189
 Si         1.3400357886        6.7537826150       15.0226806944
 Si         1.3418528422        9.5536135327        1.3480486389
 Si         1.3545158470        9.5265665621        6.7676632005
 Si         1.3261173161        9.5173076625       12.2632481084
 Si         1.3713858622       12.2920055968        4.0080271481
 Si         1.3261103124       12.2632456587        9.5173160329
 Si         1.3036257375       12.2860828069       15.0101708251
 Si         1.1914162969       15.2383364166        1.2724875101
 Si         1.3400390668       15.0226780951        6.7537784055
 Si         1.3036278230       15.0101740186       12.2860836970
  H         2.5075604993        0.5392364724        3.0881182791
  H         2.1528078651        0.3987344417        8.7331460383
  H         1.7956349153        0.0597264767       14.5895340686
  H         2.5075605143        3.0881200163        0.5392380060
  H         2.1527866264        8.7331279487        0.3987038581
  H         1.7956335229       14.5895348153        0.0597338021
  H         2.2801875021        3.2036746024       17.5304622509
  H         1.9315547657        8.9466085037       17.2911672476
  H         1.5678378421       14.6034821021       17.1494994028
  H         2.2801936793       17.5304644665        3.2036736068
  H         1.9315638527       17.2911837558        8.9466169173
  H         1.5678442773       17.1494947711       14.6034732697
 Si         2.7731381955        2.6743744464        5.3986799227
 Si         2.7463561725        2.6523952119       10.9223973674
 Si         2.8904872574        2.4504278668       16.3849052571
 Si         2.7731357056        5.3986739892        2.6743754695
 Si         2.7423086264        5.4128130310        8.1566802058
 Si         2.7183054183        5.3843160738       13.6660262393
 Si         2.7423094174        8.1566791419        5.4128175912
 Si         2.7047248383        8.1431266000       10.8998658926
 Si         2.7388120417        8.1202780256       16.3397615528
 Si         2.7463512377       10.9223991789        2.6523872505
 Si         2.7047265650       10.8998633592        8.1431251813
 Si         2.6625974532       10.9094768346       13.6322355691
 Si         2.7182857440       13.6660148790        5.3842892584
 Si         2.6625980970       13.6322358044       10.9094814122
 Si         2.5432834349       13.7442066515       16.3870197895
 Si         2.8904850787       16.3849022839        2.4504298986
 Si         2.7388032990       16.3397698199        8.1202778277
 Si         2.5432942563       16.3870220145       13.7441936691
  H         3.8936622463        1.4663585298       16.9297179358
  H         3.6741752864        7.3096401312       17.1718766402
  H         3.3103947224       12.9614780748       17.4100517342
  H         3.8936510036       16.9297168965        1.4663530797
  H         3.6741725090       17.1718745818        7.3096392342
  H         3.3104110726       17.4100497622       12.9614669762
  H         3.7991377411       -0.0483463392        1.6867829962
  H         3.3179910504        0.3974859446        7.5555847175
  H         3.0751660795        0.5406747973       13.3031006788
  H         3.7991363813        1.6867833761       -0.0483473968
  H         3.3179999473        7.5555833968        0.3974871002
  H         3.0751723544       13.3031021936        0.5406855691
 Si         4.6225189453        1.0338340234        1.0338324396
 Si         4.1534185836        1.3414989449        6.7526900628
 Si         4.0067017704        1.2944143004       12.3960337135
 Si         4.1385188039        3.9956946124        3.9957029052
 Si         4.0900979558        4.0289130529        9.5342048563
 Si         4.0761007232        3.9898991677       15.0298350912
 Si         4.1534227794        6.7526790736        1.3414950373
 Si         4.1063297425        6.7694184421        6.7694278940
 Si         4.0642311888        6.7544206043       12.2689456636
 Si         4.0900936549        9.5342098645        4.0289035932
 Si         4.0605723298        9.5192784671        9.5192909226
 Si         4.0296411782        9.5223158189       14.9638655964
 Si         4.0067071658       12.3960294739        1.2944136457
 Si         4.0642258006       12.2689475307        6.7543964568
 Si         4.0337614111       12.2883918284       12.2883964266
 Si         4.0760985895       15.0298382433        3.9899013092
 Si         4.0296359668       14.9638384948        9.5222788002
 Si         3.9990913275       15.0875808255       15.0875781429
  H         5.8598433916        0.4176080555        0.4176065150
  H         5.0695629950        0.5197697839        5.9056323734
  H         4.8164713356        0.2759748276       11.6604855309
  H         5.0695649317        5.9056269560        0.5197610914
  H         4.8164698272       11.6604789803        0.2759719553
  H         4.7198464286        6.0312520874       17.4106976747
  H         4.4786496622       11.7736794073       17.1746988443
  H         4.7198498091       17.4106984676        6.0312571330
  H         4.4786040622       17.1747189053       11.7735319797
  H         3.6716473430       17.2788972827       17.2788945851
 Si         5.4870803618        2.5983338317        2.5983349759
 Si         5.4637549310        2.6832253144        8.1613346742
 Si         5.4578331087        2.6290118392       13.6811261165
 Si         5.4738460226        5.3862302165        5.3862317607
 Si         5.4451292706        5.3850953087       10.9123480813
 Si         5.5096173924        5.2827606026       16.3837953545
 Si         5.4637583879        8.1613382622        2.6832113834
 Si         5.4474693392        8.1501840923        8.1501945773
 Si         5.4107604338        8.1358415167       13.6307205808
 Si         5.4451269965       10.9123424686        5.3850885039
 Si         5.4015155512       10.9036455143       10.9036492996
 Si         5.3523730527       10.9133190251       16.3166406957
 Si         5.4578317126       13.6811282942        2.6290151137
 Si         5.4107664387       13.6307059492        8.1358198282
 Si         5.3637566065       13.6880171342       13.6880250577
 Si         5.5096207143       16.3838004087        5.2827597600
 Si         5.3523858026       16.3166162661       10.9132559212
 Si         4.8921047815       16.6496763902       16.6496723286
  H         6.4568276809        4.3944948197       17.1432657492
  H         6.2039305536       10.0457992424       17.1898407921
  H         5.7151966439       16.0035541040       17.7372824737
  H         6.4568399995       17.1432605888        4.3944948554
  H         6.2039642435       17.1898171713       10.0457487209
  H         5.7152187681       17.7372782131       16.0035568255
  H         6.2367599103        0.1772768561        4.6153782172
  H         5.8753302041        0.4179638068       10.3715672037
  H         5.6270511636        0.7656948348       16.2385393370
  H         6.2367574159        4.6153811819        0.1772711675
  H         5.8753268875       10.3715708509        0.4179633987
  H         5.6270511239       16.2385383149        0.7656985301
 Si         6.9591199609        1.2862347963        3.9033414350
 Si         6.7664932551        1.3058113478        9.5571960078
 Si         6.6291720594        1.2820538971       15.2475188362
 Si         6.9591143597        3.9033423271        1.2862280338
 Si         6.8291522740        4.0222063772        6.7670949159
 Si         6.8037819859        3.9916097148       12.2809953950
 Si         6.8291507210        6.7670962540        4.0222046430
 Si         6.7974336076        6.7619831814        9.5251081762
 Si         6.7576591242        6.7427630875       15.0022356169
 Si         6.7665016445        9.5571906980        1.3057964183
 Si         6.7974298168        9.5251111325        6.7619934553
 Si         6.7678201404        9.5154049054       12.2594122584
 Si         6.8037806138       12.2809905608        3.9916053999
 Si         6.7678266779       12.2594069119        9.5154082322
 Si         6.7391199768       12.2824762004       15.0060387852
 Si         6.6291740812       15.2475174524        1.2820547605
 Si         6.7576615386       15.0022368552        6.7427541355
 Si         6.7391105085       15.0060405560       12.2824831308
  H         7.9684570161        0.6517232345        2.9810454737
  H         7.6175092833        0.3980168517        8.7309595337
  H         7.2579709345        0.0740518814       14.6008834202
  H         7.9684578529        2.9810485695        0.6517237723
  H         7.6175023571        8.7309455161        0.3979961199
  H         7.2579734415       14.6008833199        0.0740520576
  H         7.7451566802        3.2000759698       17.6207131345
  H         7.2808170407        8.9578122963       17.1926333066
  H         7.0323725833       14.6017505118       17.1538965655
  H         7.7451569117       17.6207162123        3.2000787617
  H         7.2808238667       17.1926270495        8.9577992288
  H         7.0323718588       17.1538942469       14.6017496059
 Si         8.1837040902        2.6483794248        5.3843870762
 Si         8.1700327615        2.6249460842       10.9105053779
 Si         8.2982405294        2.4755704721       16.4197610434
 Si         8.1837078780        5.3843830341        2.6483738287
 Si         8.1697735418        5.3943989052        8.1507167080
 Si         8.1397643485        5.3700053560       13.6565927720
 Si         8.1697754792        8.1507161358        5.3944057241
 Si         8.1457990968        8.1381315885       10.8993601092
 Si         8.1410087298        8.1234968211       16.3031194420
 Si         8.1700333752       10.9105012597        2.6249348434
 Si         8.1458084734       10.8993581844        8.1381398061
 Si         8.1013233156       10.9108907798       13.6295525878
 Si         8.1397612365       13.6565946838        5.3699959914
 Si         8.1013283172       13.6295616122       10.9108935248
 Si         7.9904534365       13.7288601359       16.3868264763
 Si         8.2982389364       16.4197627862        2.4755743288
 Si         8.1410149100       16.3031129262        8.1234854321
 Si         7.9904536749       16.3868270184       13.7288596939
  H         9.2742961597        1.4579396585       16.9332489300
  H         9.0306821628        7.3137762698       17.1814108874
  H         8.7775279619       12.9583491481       17.4050030015
  H         9.2742918413       16.9332465519        1.4579402408
  H         9.0306858914       17.1814031360        7.3137669402
  H         8.7775293437       17.4050016749       12.9583472524
  H         9.2682229000       -0.0512505226        1.6835111097
  H         8.6807963436        0.4050894755        7.5536781334
  H         8.4379415007        0.5476372222       13.2987849190
  H         9.2682252667        1.6835109113       -0.0512484952
  H         8.6807828876        7.5536707116        0.4050783431
  H         8.4379428826       13.2987851343        0.5476465661
 Si        10.0910682282        1.0311421814        1.0311444691
 Si         9.5574924047        1.3032083676        6.7379863179
 Si         9.4088843353        1.2519169137       12.3888093876
 Si         9.5477929664        3.9851854464        3.9851889841
 Si         9.5207638085        4.0021159828        9.5203641314
 Si         9.4915603167        3.9804758794       15.0271091154
 Si         9.5574888512        6.7379945357        1.3032044697
 Si         9.5250126011        6.7619069115        6.7619164496
 Si         9.4979825203        6.7445065047       12.2728192914
 Si         9.5207623288        9.5203610557        4.0021108470
 Si         9.4954871578        9.5192058154        9.5192114750
 Si         9.4651516641        9.5228928283       14.9649495257
 Si         9.4088876089       12.3888051539        1.2519139586
 Si         9.4979770508       12.2728311620        6.7445137303
 Si         9.4719627871       12.2881406395       12.2881424446
 Si         9.4915579635       15.0271146924        3.9804809626
 Si         9.4651505380       14.9649554569        9.5228894612
 Si         9.4255751965       15.0804230237       15.0804233199
  H        11.3302490467        0.4170158677        0.4170160326
  H        10.4245398835        0.4107507282        5.9080770470
  H        10.1695530117        0.1769326296       11.6685323121
  H        10.4245304420        5.9080751105        0.4107516279
  H        10.1695584127       11.6685304924        0.1769323620
  H        10.0808151183        6.0281698726       17.4023933124
  H         9.9373963183       11.6720660871       17.2844857541
  H        10.0808133126       17.4023951228        6.0281711776
  H         9.9373989085       17.2844809331       11.6720672261
  H         9.1101011196       17.2810960618       17.2810968506
 Si        10.9271291615        2.6015252517        2.6015308816
 Si        10.8926187769        2.6607843136        8.1252640152
 Si        10.8630984403        2.6048337702       13.6677908180
 Si        10.8836770323        5.3781428074        5.3781442990
 Si        10.8696583833        5.3683645166       10.9063671557
 Si        10.9028803112        5.2916235564       16.3859283060
 Si        10.8926251258        8.1252586117        2.6607888684
 Si        10.8678654532        8.1454167393        8.1454038645
 Si        10.8447259129        8.1321596006       13.6362034909
 Si        10.8696501833       10.9063618375        5.3683721843
 Si        10.8358503806       10.9042595235       10.9042658800
 Si        10.7931475326       10.8928720483       16.3385775409
 Si        10.8630875715       13.6677900195        2.6048364700
 Si        10.8447234556       13.6362105480        8.1321671724
 Si        10.7979393038       13.6897353542       13.6897338022
 Si        10.9028777060       16.3859291374        5.2916275862
 Si        10.7931471106       16.3385721348       10.8928709094
 Si        10.3108181318       16.6413161667       16.6413162044
  H        11.8232463780        4.3904554112       17.1576454988
  H        11.6802115472       10.0307743106       17.1781424226
  H        11.1136415126       15.9989795696       17.7404049109
  H        11.8232436971       17.1576388409        4.3904546789
  H        11.6802096205       17.1781375537       10.0307735611
  H        11.1136424069       17.7404048281       15.9989798144
  H        11.5861613932        0.2645125933        4.6334676269
  H        11.2272763493        0.5256733320       10.3824595807
  H        11.0020564747        0.7712458435       16.2314220268
  H        11.5861645044        4.6334693016        0.2645395869
  H        11.2272681852       10.3824567159        0.5256732809
  H        11.0020563311       16.2314217876        0.7712426569
 Si        12.3882420836        1.2929075765        3.9049772505
 Si        12.1899455788        1.2989101707        9.5398458820
 Si        12.0236974147        1.2580644405       15.2349123544
 Si        12.3882539580        3.9049740655        1.2929204254
 Si        12.2494079794        4.0228325312        6.7488311993
 Si        12.2270296931        3.9737700937       12.2784254467
 Si        12.2494205638        6.7488298716        4.0228410166
 Si        12.2171301289        6.7582884889        9.5230289656
 Si        12.1850430002        6.7486790000       15.0278360676
 Si        12.1899407286        9.5398607977        1.2989235911
 Si        12.2171491485        9.5230165155        6.7582668688
 Si        12.1969796423        9.5142145405       12.2636314912
 Si        12.2270271287       12.2784278688        3.9737746485
 Si        12.1969724563       12.2636362659        9.5142221756
 Si        12.1589767341       12.2835207045       15.0212877973
 Si        12.0236910830       15.2349104752        1.2580710245
 Si        12.1850335352       15.0278411567        6.7486871638
 Si        12.1589797243       15.0212924157       12.2835251738
  H        13.3268868638        0.5506905327        2.9856929462
  H        12.9646861163        0.2918335608        8.7433654795
  H        12.6197662037        0.0476457635       14.5849648522
  H        13.3268882783        2.9856970464        0.5506801697
  H        12.9646860961        8.7433690033        0.2918589735
  H        12.6197537999       14.5849711112        0.0476449213
  H        13.0941366077        3.1144776415       17.5376461217
  H        12.7582679791        8.9425875694       17.2888938228
  H        12.4949884270       14.6048400957       17.1588849107
  H        13.0941268968       17.5376505795        3.1144711866
  H        12.7582698746       17.2888972868        8.9425905449
  H        12.4949875660       17.1588845586       14.6048393814
 Si        13.6235406368        2.6590420001        5.3783659692
 Si        13.6086654593        2.6246898136       10.8885577871
 Si        13.7272683894        2.4290609485       16.3700009570
 Si        13.6235503623        5.3783677407        2.6590484669
 Si        13.5875084880        5.3960282486        8.1438167500
 Si        13.5576255746        5.3663386154       13.6651962609
 Si        13.5875308850        8.1438291502        5.3959999560
 Si        13.5672559238        8.1360548372       10.8997415415
 Si        13.5805234316        8.1224272879       16.3423222622
 Si        13.6086630987       10.8885509334        2.6247118009
 Si        13.5672525456       10.8997392056        8.1360552196
 Si        13.5242723030       10.9093528036       13.6427870801
 Si        13.5576195688       13.6651991916        5.3663484385
 Si        13.5242736224       13.6427904461       10.9093592460
 Si        13.4341848430       13.7188008884       16.3871019988
 Si        13.7272657029       16.3700040266        2.4290597022
 Si        13.5805188026       16.3423228354        8.1224290551
 Si        13.4341918498       16.3871053109       13.7188064395
  H        14.7257547987        1.4548535804       16.9274503180
  H        14.5019447688        7.3031026614       17.1774124074
  H        14.2408087919       12.9587365160       17.4009277373
  H        14.7257548901       16.9274506206        1.4548525377
  H        14.5019416287       17.1774124451        7.3031062257
  H        14.2408126150       17.4009297747       12.9587365657
  H        14.7189309259       -0.0505478856        1.6918905101
  H        14.1508377293        0.5054244508        7.6573345832
  H        13.8916758656        0.6430320070       13.3099882326
  H        14.7189307534        1.6918903107       -0.0505493263
  H        14.1508420731        7.6573262265        0.5054335786
  H        13.8916475979       13.3099848070        0.6432118769
 Si        15.5209713017        1.0423790125        1.0423779771
 Si        14.9985995395        1.3649948530        6.7727465586
 Si        14.8722776313        1.2814298935       12.3725863449
 Si        15.0003136232        3.9879548784        3.9879568749
 Si        14.9480328860        4.0307782779        9.5247729777
 Si        14.9205775792        3.9783251244       15.0277009961
 Si        14.9986116720        6.7727409266        1.3649957226
 Si        14.9487948335        6.7606438590        6.7606250243
 Si        14.9162922667        6.7511036802       12.2848494028
 Si        14.9480123738        9.5247930231        4.0307739692
 Si        14.9152474098        9.5163214677        9.5163276476
 Si        14.8917443130        9.5259087934       14.9854423089
 Si        14.8723063100       12.3725348228        1.2814773358
 Si        14.9162976990       12.2848373845        6.7510916227
 Si        14.8877842263       12.2877716153       12.2877749128
 Si        14.9205765278       15.0276923844        3.9783203512
 Si        14.8917409650       14.9854524729        9.5259168799
 Si        14.8529007771       15.0650971187       15.0651039381
  H        16.7298002891        0.4118334148        0.4118308896
  H        15.8804542648        0.5074743704        5.9219241809
  H        15.6191305712        0.1781371389       11.6764340540
  H        15.8804546618        5.9219231315        0.5074586551
  H        15.6190725149       11.6764862762        0.1780553158
    &END COORD
    &KIND H
      BASIS_SET 3SP-GTH
      POTENTIAL GTH-PADE-q1
    &END KIND
    &KIND C
      BASIS_SET 3SP-GTH
      POTENTIAL GTH-PADE-q4
    &END KIND
    &KIND Si
      BASIS_SET 3SP-GTH
      POTENTIAL GTH-PADE-q4
    &END KIND
    &PRINT
      &ATOMIC_COORDINATES OFF
      &END
      &MOLECULES OFF
      &END
    &END
  &END SUBSYS
&END FORCE_EVAL
&MOTION
 &GEO_OPT
 &END
&END
&GLOBAL
  &DBCSR
     SUBCOMMUNICATORS .TRUE.
     COMM_THREAD_LOAD 80
  &END
  PROJECT SI
  RUN_TYPE ENERGY
  PRINT_LEVEL MEDIUM
  &TIMINGS
     THRESHOLD 0.000001
  &END
  EXTENDED_FFT_LENGTHS
!TRACE
!TRACE_MASTER .FALSE.
!TRACE_MAX 1000
&END GLOBAL
